job_count = 30 ;
duration = [|37, 29, 8, 2|21, 16, 19, 3|21, 4, 4, 1|29, 6, 19, 1|21, 29, 2, 6|13, 14, 4, 8|35, 15, 4, 6|25, 15, 2, 5|31, 28, 10, 1|4, 18, 3, 4|18, 26, 3, 8|33, 21, 9, 3|34, 20, 5, 7|5, 15, 4, 2|13, 9, 9, 5|38, 17, 13, 7|29, 23, 6, 4|9, 21, 2, 1|38, 18, 7, 8|5, 14, 5, 6|19, 8, 15, 3|10, 28, 8, 2|12, 23, 13, 1|33, 7, 8, 9|9, 15, 17, 5|38, 3, 11, 2|11, 14, 3, 4|31, 29, 3, 1|21, 9, 3, 7|22, 10, 2, 8|] ;
machine_count = 4 ;
cost = [|19, 25, 33, 40|18, 36, 54, 75|13, 22, 33, 78|18, 39, 47, 62|17, 24, 35, 76|13, 20, 39, 41|18, 21, 32, 64|14, 22, 47, 67|19, 39, 35, 40|19, 25, 51, 72|18, 24, 53, 70|18, 23, 38, 67|13, 39, 31, 70|11, 24, 48, 74|18, 31, 36, 42|19, 30, 35, 44|19, 20, 38, 75|13, 25, 54, 44|14, 29, 51, 43|17, 31, 45, 46|12, 34, 33, 78|10, 35, 31, 62|11, 34, 40, 43|15, 28, 53, 48|17, 38, 56, 44|11, 22, 59, 42|11, 22, 50, 55|11, 30, 56, 57|10, 34, 57, 67|10, 33, 51, 56|] ;
deadline = [62, 62, 62, 62, 62, 62, 62, 62, 62, 62, 62, 62, 62, 62, 62, 62, 62, 62, 62, 62, 62, 62, 62, 62, 62, 62, 62, 62, 62, 62] ;
release = [0, 0, 0, 0, 0, 0, 0, 0, 0, 0, 0, 0, 0, 0, 0, 0, 0, 0, 0, 0, 0, 0, 0, 0, 0, 0, 0, 0, 0, 0] ;
resource = [|8, 8, 8, 8|2, 2, 2, 2|3, 3, 3, 3|2, 2, 2, 2|7, 7, 7, 7|8, 8, 8, 8|6, 6, 6, 6|6, 6, 6, 6|1, 1, 1, 1|7, 7, 7, 7|6, 6, 6, 6|8, 8, 8, 8|1, 1, 1, 1|9, 9, 9, 9|3, 3, 3, 3|3, 3, 3, 3|6, 6, 6, 6|7, 7, 7, 7|1, 1, 1, 1|8, 8, 8, 8|8, 8, 8, 8|2, 2, 2, 2|8, 8, 8, 8|8, 8, 8, 8|3, 3, 3, 3|1, 1, 1, 1|7, 7, 7, 7|8, 8, 8, 8|2, 2, 2, 2|9, 9, 9, 9|] ;
capacities = [10, 10, 10, 10] ;
